c Command line: hgen8 210 80
p cnf 210 323
136 207 97 141 0
9 38 182 37 0
167 13 29 184 0
137 17 11 210 0
57 19 135 50 0
88 94 90 92 0
74 170 112 15 0
16 124 69 63 0
100 6 114 205 0
103 113 39 122 0
1 3 133 161 0
139 2 22 115 0
180 55 70 26 0
12 24 41 10 0
117 52 189 192 0
62 53 4 163 0
109 32 187 198 0
51 208 76 152 0
28 175 168 157 0
60 131 185 121 0
85 93 171 73 0
83 196 14 146 0
149 91 75 181 0
193 186 132 197 0
86 200 96 21 0
194 18 111 188 0
176 164 99 59 0
95 156 45 125 0
7 81 31 27 0
44 206 64 56 0
173 154 102 138 0
159 155 147 46 0
104 153 54 107 0
145 82 71 143 0
80 165 201 179 0
79 110 158 128 0
34 42 33 89 0
129 101 183 87 0
204 166 127 58 0
84 119 72 5 0
106 151 40 178 0
8 195 172 120 0
177 25 150 105 0
-1 -2 0
-1 -3 0
-1 -4 0
-1 -5 0
-2 -3 0
-2 -4 0
-2 -5 0
-3 -4 0
-3 -5 0
-4 -5 0
-6 -7 0
-6 -8 0
-6 -9 0
-6 -10 0
-7 -8 0
-7 -9 0
-7 -10 0
-8 -9 0
-8 -10 0
-9 -10 0
-11 -12 0
-11 -13 0
-11 -14 0
-11 -15 0
-12 -13 0
-12 -14 0
-12 -15 0
-13 -14 0
-13 -15 0
-14 -15 0
-16 -17 0
-16 -18 0
-16 -19 0
-17 -18 0
-17 -19 0
-18 -19 0
-21 -22 0
-21 -24 0
-21 -25 0
-22 -24 0
-22 -25 0
-24 -25 0
-26 -27 0
-26 -28 0
-26 -29 0
-27 -28 0
-27 -29 0
-28 -29 0
-31 -32 0
-31 -33 0
-31 -34 0
-32 -33 0
-32 -34 0
-33 -34 0
-37 -38 0
-37 -39 0
-37 -40 0
-38 -39 0
-38 -40 0
-39 -40 0
-41 -42 0
-41 -44 0
-41 -45 0
-42 -44 0
-42 -45 0
-44 -45 0
-46 -50 0
-51 -52 0
-51 -53 0
-51 -54 0
-51 -55 0
-52 -53 0
-52 -54 0
-52 -55 0
-53 -54 0
-53 -55 0
-54 -55 0
-56 -57 0
-56 -58 0
-56 -59 0
-56 -60 0
-57 -58 0
-57 -59 0
-57 -60 0
-58 -59 0
-58 -60 0
-59 -60 0
-62 -63 0
-62 -64 0
-63 -64 0
-69 -70 0
-71 -72 0
-71 -73 0
-71 -74 0
-71 -75 0
-72 -73 0
-72 -74 0
-72 -75 0
-73 -74 0
-73 -75 0
-74 -75 0
-76 -79 0
-76 -80 0
-79 -80 0
-81 -82 0
-81 -83 0
-81 -84 0
-81 -85 0
-82 -83 0
-82 -84 0
-82 -85 0
-83 -84 0
-83 -85 0
-84 -85 0
-86 -87 0
-86 -88 0
-86 -89 0
-86 -90 0
-87 -88 0
-87 -89 0
-87 -90 0
-88 -89 0
-88 -90 0
-89 -90 0
-91 -92 0
-91 -93 0
-91 -94 0
-91 -95 0
-92 -93 0
-92 -94 0
-92 -95 0
-93 -94 0
-93 -95 0
-94 -95 0
-96 -97 0
-96 -99 0
-96 -100 0
-97 -99 0
-97 -100 0
-99 -100 0
-101 -102 0
-101 -103 0
-101 -104 0
-101 -105 0
-102 -103 0
-102 -104 0
-102 -105 0
-103 -104 0
-103 -105 0
-104 -105 0
-106 -107 0
-106 -109 0
-106 -110 0
-107 -109 0
-107 -110 0
-109 -110 0
-111 -112 0
-111 -113 0
-111 -114 0
-111 -115 0
-112 -113 0
-112 -114 0
-112 -115 0
-113 -114 0
-113 -115 0
-114 -115 0
-117 -119 0
-117 -120 0
-119 -120 0
-121 -122 0
-121 -124 0
-121 -125 0
-122 -124 0
-122 -125 0
-124 -125 0
-127 -128 0
-127 -129 0
-128 -129 0
-131 -132 0
-131 -133 0
-131 -135 0
-132 -133 0
-132 -135 0
-133 -135 0
-136 -137 0
-136 -138 0
-136 -139 0
-137 -138 0
-137 -139 0
-138 -139 0
-141 -143 0
-141 -145 0
-143 -145 0
-146 -147 0
-146 -149 0
-146 -150 0
-147 -149 0
-147 -150 0
-149 -150 0
-151 -152 0
-151 -153 0
-151 -154 0
-151 -155 0
-152 -153 0
-152 -154 0
-152 -155 0
-153 -154 0
-153 -155 0
-154 -155 0
-156 -157 0
-156 -158 0
-156 -159 0
-157 -158 0
-157 -159 0
-158 -159 0
-161 -163 0
-161 -164 0
-161 -165 0
-163 -164 0
-163 -165 0
-164 -165 0
-166 -167 0
-166 -168 0
-166 -170 0
-167 -168 0
-167 -170 0
-168 -170 0
-171 -172 0
-171 -173 0
-171 -175 0
-172 -173 0
-172 -175 0
-173 -175 0
-176 -177 0
-176 -178 0
-176 -179 0
-176 -180 0
-177 -178 0
-177 -179 0
-177 -180 0
-178 -179 0
-178 -180 0
-179 -180 0
-181 -182 0
-181 -183 0
-181 -184 0
-181 -185 0
-182 -183 0
-182 -184 0
-182 -185 0
-183 -184 0
-183 -185 0
-184 -185 0
-186 -187 0
-186 -188 0
-186 -189 0
-187 -188 0
-187 -189 0
-188 -189 0
-192 -193 0
-192 -194 0
-192 -195 0
-193 -194 0
-193 -195 0
-194 -195 0
-196 -197 0
-196 -198 0
-196 -200 0
-197 -198 0
-197 -200 0
-198 -200 0
-201 -204 0
-201 -205 0
-204 -205 0
-206 -207 0
-206 -208 0
-206 -210 0
-207 -208 0
-207 -210 0
-208 -210 0
